s td 23 4 25
b 1 2 21
b 2 7 15
b 3 3 16
b 4 3 20
b 5 5 18
b 6 12 19
b 7 1 6 25
b 8 6 20 25
b 9 5 9 14
b 10 6 13 20
b 11 7 9 12
b 12 8 9 11 12
b 13 8 9 12 14
b 14 8 13 17
b 15 12 13 20
b 16 8 12 13 14
b 17 12 13 14
b 18 13 14 21
b 19 21
b 20 4 23
b 21 10
b 22 22
b 23 24
1 19
1 20
1 21
1 22
1 23
2 11
3 4
4 15
5 9
6 16
7 8
8 10
9 13
10 15
11 13
12 13
13 16
14 16
15 16
16 18
16 17
18 19
